WARNING: for repeatability, setting FPU to use double precision
============================[ Problem Statistics ]=============================
|                                                                             |
|  Number of variables:           100                                         |
|  Number of clauses:             449                                         |
|  Parse time:                   0.00 s                                       |
|  Eliminated clauses:           0.00 Mb                                      |
|  Simplification time:          0.00 s                                       |
|                                                                             |
============================[ Search Statistics ]==============================
| Conflicts |          ORIGINAL         |          LEARNT          | Progress |
|           |    Vars  Clauses Literals |    Limit  Clauses Lit/Cl |          |
===============================================================================
|       100 |      96      438     1329 |      160      100      7 |  0.010 % |
===============================================================================
restarts              : 2
conflicts             : 130            (46148 /sec)
decisions             : 173            (0.00 % random) (61413 /sec)
propagations          : 2874           (1020234 /sec)
conflict literals     : 852            (14.97 % deleted)
Memory used           : 13.00 MB
CPU time              : 0.002817 s

SATISFIABLE
